p cnf 64 254
c 63 61 65 65 

-1 2 0
1 -3 0
-4 -3 0
-4 -1 -3 0
4 -1 3 0
-4 1 3 0
4 1 -3 0
-5 -6 7 0
5 -6 -7 0
-5 6 -7 0
5 6 7 0
-7 -8 9 0
7 -8 -9 0
-7 8 -9 0
7 8 9 0
-5 -7 -10 0
5 7 -10 0
-5 7 10 0
5 -7 10 0
-5 -11 -12 0
5 11 -12 0
-5 11 12 0
5 -11 12 0
-7 -9 -11 0
7 9 -11 0
-7 9 11 0
7 -9 11 0
-5 -7 -13 0
5 7 -13 0
-5 7 13 0
5 -7 13 0
-14 -5 -15 0
14 5 -15 0
-14 5 15 0
14 -5 15 0
-5 -16 17 0
5 -16 -17 0
-5 16 -17 0
5 16 17 0
-14 -18 7 0
14 -18 -7 0
-14 18 -7 0
14 18 7 0
-14 -19 -20 0
14 19 -20 0
-14 19 20 0
14 -19 20 0
-5 -19 -7 0
5 -19 7 0
-5 19 7 0
5 19 -7 0
-5 -21 -4 0
5 21 -4 0
-5 21 4 0
5 -21 4 0
-7 -22 9 0
7 -22 -9 0
-7 22 -9 0
7 22 9 0
-7 -23 -9 0
7 -23 9 0
-7 23 9 0
7 23 -9 0
-24 -25 -26 0
24 25 -26 0
-24 25 26 0
24 -25 26 0
-14 -6 -25 0
14 6 -25 0
-14 6 25 0
14 -6 25 0
-14 -27 -28 0
14 27 -28 0
-14 27 28 0
14 -27 28 0
-17 -8 -27 0
17 8 -27 0
-17 8 27 0
17 -8 27 0
-24 -10 -29 0
24 10 -29 0
-24 10 29 0
24 -10 29 0
-24 -13 -30 0
24 13 -30 0
-24 13 30 0
24 -13 30 0
-24 -7 -31 0
24 7 -31 0
-24 7 31 0
24 -7 31 0
-14 -16 -32 0
14 16 -32 0
-14 16 32 0
14 -16 32 0
33 -34 -35 0
-24 -36 -33 0
24 36 -33 0
-24 36 33 0
24 -36 33 0
-14 -36 17 0
14 -36 -17 0
-14 36 -17 0
14 36 17 0
-24 -37 17 0
24 -37 -17 0
-24 37 -17 0
24 37 17 0
-24 -18 -38 0
24 18 -38 0
-24 18 38 0
24 -18 38 0
-17 -22 -21 0
17 22 -21 0
-17 22 21 0
17 -22 21 0
-24 -39 -40 0
24 39 -40 0
-24 39 40 0
24 -39 40 0
-17 -23 -39 0
17 23 -39 0
-17 23 39 0
17 -23 39 0
-41 42 0
-26 -41 0
-26 -41 -42 0
26 41 -42 0
-26 41 42 0
26 -41 42 0
-43 41 0
-44 -43 0
-44 -43 -41 0
44 43 -41 0
-44 43 41 0
44 -43 41 0
-45 43 0
-46 -47 0
-48 47 0
-49 -48 0
-49 -48 -47 0
49 48 -47 0
-49 48 47 0
49 -48 47 0
-50 48 0
-51 -50 -48 0
51 50 -48 0
-51 50 48 0
51 -50 48 0
-52 50 0
-53 -52 0
-53 -52 -50 0
53 52 -50 0
-53 52 50 0
53 -52 50 0
-54 52 0
-55 -54 0
-55 -54 -52 0
55 54 -52 0
-55 54 52 0
55 -54 52 0
-56 -28 -44 0
56 28 -44 0
-56 28 44 0
56 -28 44 0
-56 -30 -46 0
56 30 -46 0
-56 30 46 0
56 -30 46 0
-56 -31 -49 0
56 31 -49 0
-56 31 49 0
56 -31 49 0
-56 -14 -53 0
56 14 -53 0
-56 14 53 0
56 -14 53 0
-56 -32 -55 0
56 32 -55 0
-56 32 55 0
56 -32 55 0
-56 -57 -58 0
56 57 -58 0
-56 57 58 0
56 -57 58 0
-56 -40 -3 0
56 40 -3 0
-56 40 3 0
56 -40 3 0
-59 -45 0
-59 -45 -43 0
59 45 -43 0
-59 45 43 0
59 -45 43 0
-60 45 0
-12 -60 0
-12 -60 -45 0
12 60 -45 0
-12 60 45 0
12 -60 45 0
-47 60 0
-46 -47 -60 0
46 47 -60 0
-46 47 60 0
46 -47 60 0
-51 -50 0
-61 54 0
-34 -61 0
-34 -61 -54 0
34 61 -54 0
-34 61 54 0
34 -61 54 0
-62 61 0
-37 -62 0
-37 -62 -61 0
37 62 -61 0
-37 62 61 0
37 -62 61 0
-63 62 0
-64 -63 0
-64 -63 -62 0
64 63 -62 0
-64 63 62 0
64 -63 62 0
-2 63 0
-58 -2 0
-58 -2 -63 0
58 2 -63 0
-58 2 63 0
58 -2 63 0
-35 -1 0
-35 -1 -2 0
35 1 -2 0
-35 1 2 0
35 -1 2 0
-29 -59 35 0
29 -59 -35 0
29 59 35 0
-29 59 -35 0
-15 -51 35 0
15 -51 -35 0
15 51 35 0
-15 51 -35 0
-33 -34 35 0
33 34 35 0
-33 34 -35 0
-38 -64 35 0
38 -64 -35 0
38 64 35 0
-38 64 -35 0
-20 -57 35 0
20 -57 -35 0
20 57 35 0
-20 57 -35 0
